input/length_18_5.lp
Maximize
+  C1,2 + C1,6 +  C2,3 + C2,7 +  C3,4 + C3,8 +  C4,5 + C4,9 + C5,10 +  C6,7 + C6,11 +  C7,8 + C7,12 +  C8,9 + C8,13 +  C9,10 + C9,14 + C10,15 +  C11,12 + C11,16 +  C12,13 + C12,17 +  C13,14 + C13,18 +  C14,15 + C14,19 + C15,20 +  C16,17 + C16,21 +  C17,18 + C17,22 +  C18,19 + C18,23 +  C19,20 + C19,24 + C20,25 +  C21,22 +  C22,23 +  C23,24 +  C24,25  - Offset 
subject to 
Offset = 3 
+ X1,1 + X1,2 + X1,3 + X1,4 + X1,5 + X1,6 + X1,7 + X1,8 + X1,9 + X1,10 + X1,11 + X1,12 + X1,13 + X1,14 + X1,15 + X1,16 + X1,17 + X1,18 + X1,19 + X1,20 + X1,21 + X1,22 + X1,23 + X1,24 + X1,25 =  1 
+ X2,1 + X2,2 + X2,3 + X2,4 + X2,5 + X2,6 + X2,7 + X2,8 + X2,9 + X2,10 + X2,11 + X2,12 + X2,13 + X2,14 + X2,15 + X2,16 + X2,17 + X2,18 + X2,19 + X2,20 + X2,21 + X2,22 + X2,23 + X2,24 + X2,25 =  1 
+ X3,1 + X3,2 + X3,3 + X3,4 + X3,5 + X3,6 + X3,7 + X3,8 + X3,9 + X3,10 + X3,11 + X3,12 + X3,13 + X3,14 + X3,15 + X3,16 + X3,17 + X3,18 + X3,19 + X3,20 + X3,21 + X3,22 + X3,23 + X3,24 + X3,25 =  1 
+ X4,1 + X4,2 + X4,3 + X4,4 + X4,5 + X4,6 + X4,7 + X4,8 + X4,9 + X4,10 + X4,11 + X4,12 + X4,13 + X4,14 + X4,15 + X4,16 + X4,17 + X4,18 + X4,19 + X4,20 + X4,21 + X4,22 + X4,23 + X4,24 + X4,25 =  1 
+ X5,1 + X5,2 + X5,3 + X5,4 + X5,5 + X5,6 + X5,7 + X5,8 + X5,9 + X5,10 + X5,11 + X5,12 + X5,13 + X5,14 + X5,15 + X5,16 + X5,17 + X5,18 + X5,19 + X5,20 + X5,21 + X5,22 + X5,23 + X5,24 + X5,25 =  1 
+ X6,1 + X6,2 + X6,3 + X6,4 + X6,5 + X6,6 + X6,7 + X6,8 + X6,9 + X6,10 + X6,11 + X6,12 + X6,13 + X6,14 + X6,15 + X6,16 + X6,17 + X6,18 + X6,19 + X6,20 + X6,21 + X6,22 + X6,23 + X6,24 + X6,25 =  1 
+ X7,1 + X7,2 + X7,3 + X7,4 + X7,5 + X7,6 + X7,7 + X7,8 + X7,9 + X7,10 + X7,11 + X7,12 + X7,13 + X7,14 + X7,15 + X7,16 + X7,17 + X7,18 + X7,19 + X7,20 + X7,21 + X7,22 + X7,23 + X7,24 + X7,25 =  1 
+ X8,1 + X8,2 + X8,3 + X8,4 + X8,5 + X8,6 + X8,7 + X8,8 + X8,9 + X8,10 + X8,11 + X8,12 + X8,13 + X8,14 + X8,15 + X8,16 + X8,17 + X8,18 + X8,19 + X8,20 + X8,21 + X8,22 + X8,23 + X8,24 + X8,25 =  1 
+ X9,1 + X9,2 + X9,3 + X9,4 + X9,5 + X9,6 + X9,7 + X9,8 + X9,9 + X9,10 + X9,11 + X9,12 + X9,13 + X9,14 + X9,15 + X9,16 + X9,17 + X9,18 + X9,19 + X9,20 + X9,21 + X9,22 + X9,23 + X9,24 + X9,25 =  1 
+ X10,1 + X10,2 + X10,3 + X10,4 + X10,5 + X10,6 + X10,7 + X10,8 + X10,9 + X10,10 + X10,11 + X10,12 + X10,13 + X10,14 + X10,15 + X10,16 + X10,17 + X10,18 + X10,19 + X10,20 + X10,21 + X10,22 + X10,23 + X10,24 + X10,25 =  1 
+ X11,1 + X11,2 + X11,3 + X11,4 + X11,5 + X11,6 + X11,7 + X11,8 + X11,9 + X11,10 + X11,11 + X11,12 + X11,13 + X11,14 + X11,15 + X11,16 + X11,17 + X11,18 + X11,19 + X11,20 + X11,21 + X11,22 + X11,23 + X11,24 + X11,25 =  1 
+ X12,1 + X12,2 + X12,3 + X12,4 + X12,5 + X12,6 + X12,7 + X12,8 + X12,9 + X12,10 + X12,11 + X12,12 + X12,13 + X12,14 + X12,15 + X12,16 + X12,17 + X12,18 + X12,19 + X12,20 + X12,21 + X12,22 + X12,23 + X12,24 + X12,25 =  1 
+ X13,1 + X13,2 + X13,3 + X13,4 + X13,5 + X13,6 + X13,7 + X13,8 + X13,9 + X13,10 + X13,11 + X13,12 + X13,13 + X13,14 + X13,15 + X13,16 + X13,17 + X13,18 + X13,19 + X13,20 + X13,21 + X13,22 + X13,23 + X13,24 + X13,25 =  1 
+ X14,1 + X14,2 + X14,3 + X14,4 + X14,5 + X14,6 + X14,7 + X14,8 + X14,9 + X14,10 + X14,11 + X14,12 + X14,13 + X14,14 + X14,15 + X14,16 + X14,17 + X14,18 + X14,19 + X14,20 + X14,21 + X14,22 + X14,23 + X14,24 + X14,25 =  1 
+ X15,1 + X15,2 + X15,3 + X15,4 + X15,5 + X15,6 + X15,7 + X15,8 + X15,9 + X15,10 + X15,11 + X15,12 + X15,13 + X15,14 + X15,15 + X15,16 + X15,17 + X15,18 + X15,19 + X15,20 + X15,21 + X15,22 + X15,23 + X15,24 + X15,25 =  1 
+ X16,1 + X16,2 + X16,3 + X16,4 + X16,5 + X16,6 + X16,7 + X16,8 + X16,9 + X16,10 + X16,11 + X16,12 + X16,13 + X16,14 + X16,15 + X16,16 + X16,17 + X16,18 + X16,19 + X16,20 + X16,21 + X16,22 + X16,23 + X16,24 + X16,25 =  1 
+ X17,1 + X17,2 + X17,3 + X17,4 + X17,5 + X17,6 + X17,7 + X17,8 + X17,9 + X17,10 + X17,11 + X17,12 + X17,13 + X17,14 + X17,15 + X17,16 + X17,17 + X17,18 + X17,19 + X17,20 + X17,21 + X17,22 + X17,23 + X17,24 + X17,25 =  1 
+ X18,1 + X18,2 + X18,3 + X18,4 + X18,5 + X18,6 + X18,7 + X18,8 + X18,9 + X18,10 + X18,11 + X18,12 + X18,13 + X18,14 + X18,15 + X18,16 + X18,17 + X18,18 + X18,19 + X18,20 + X18,21 + X18,22 + X18,23 + X18,24 + X18,25 =  1 
+ X1,1 + X2,1 + X3,1 + X4,1 + X5,1 + X6,1 + X7,1 + X8,1 + X9,1 + X10,1 + X11,1 + X12,1 + X13,1 + X14,1 + X15,1 + X16,1 + X17,1 + X18,1 <=  1 
+ X1,2 + X2,2 + X3,2 + X4,2 + X5,2 + X6,2 + X7,2 + X8,2 + X9,2 + X10,2 + X11,2 + X12,2 + X13,2 + X14,2 + X15,2 + X16,2 + X17,2 + X18,2 <=  1 
+ X1,3 + X2,3 + X3,3 + X4,3 + X5,3 + X6,3 + X7,3 + X8,3 + X9,3 + X10,3 + X11,3 + X12,3 + X13,3 + X14,3 + X15,3 + X16,3 + X17,3 + X18,3 <=  1 
+ X1,4 + X2,4 + X3,4 + X4,4 + X5,4 + X6,4 + X7,4 + X8,4 + X9,4 + X10,4 + X11,4 + X12,4 + X13,4 + X14,4 + X15,4 + X16,4 + X17,4 + X18,4 <=  1 
+ X1,5 + X2,5 + X3,5 + X4,5 + X5,5 + X6,5 + X7,5 + X8,5 + X9,5 + X10,5 + X11,5 + X12,5 + X13,5 + X14,5 + X15,5 + X16,5 + X17,5 + X18,5 <=  1 
+ X1,6 + X2,6 + X3,6 + X4,6 + X5,6 + X6,6 + X7,6 + X8,6 + X9,6 + X10,6 + X11,6 + X12,6 + X13,6 + X14,6 + X15,6 + X16,6 + X17,6 + X18,6 <=  1 
+ X1,7 + X2,7 + X3,7 + X4,7 + X5,7 + X6,7 + X7,7 + X8,7 + X9,7 + X10,7 + X11,7 + X12,7 + X13,7 + X14,7 + X15,7 + X16,7 + X17,7 + X18,7 <=  1 
+ X1,8 + X2,8 + X3,8 + X4,8 + X5,8 + X6,8 + X7,8 + X8,8 + X9,8 + X10,8 + X11,8 + X12,8 + X13,8 + X14,8 + X15,8 + X16,8 + X17,8 + X18,8 <=  1 
+ X1,9 + X2,9 + X3,9 + X4,9 + X5,9 + X6,9 + X7,9 + X8,9 + X9,9 + X10,9 + X11,9 + X12,9 + X13,9 + X14,9 + X15,9 + X16,9 + X17,9 + X18,9 <=  1 
+ X1,10 + X2,10 + X3,10 + X4,10 + X5,10 + X6,10 + X7,10 + X8,10 + X9,10 + X10,10 + X11,10 + X12,10 + X13,10 + X14,10 + X15,10 + X16,10 + X17,10 + X18,10 <=  1 
+ X1,11 + X2,11 + X3,11 + X4,11 + X5,11 + X6,11 + X7,11 + X8,11 + X9,11 + X10,11 + X11,11 + X12,11 + X13,11 + X14,11 + X15,11 + X16,11 + X17,11 + X18,11 <=  1 
+ X1,12 + X2,12 + X3,12 + X4,12 + X5,12 + X6,12 + X7,12 + X8,12 + X9,12 + X10,12 + X11,12 + X12,12 + X13,12 + X14,12 + X15,12 + X16,12 + X17,12 + X18,12 <=  1 
+ X1,13 + X2,13 + X3,13 + X4,13 + X5,13 + X6,13 + X7,13 + X8,13 + X9,13 + X10,13 + X11,13 + X12,13 + X13,13 + X14,13 + X15,13 + X16,13 + X17,13 + X18,13 <=  1 
+ X1,14 + X2,14 + X3,14 + X4,14 + X5,14 + X6,14 + X7,14 + X8,14 + X9,14 + X10,14 + X11,14 + X12,14 + X13,14 + X14,14 + X15,14 + X16,14 + X17,14 + X18,14 <=  1 
+ X1,15 + X2,15 + X3,15 + X4,15 + X5,15 + X6,15 + X7,15 + X8,15 + X9,15 + X10,15 + X11,15 + X12,15 + X13,15 + X14,15 + X15,15 + X16,15 + X17,15 + X18,15 <=  1 
+ X1,16 + X2,16 + X3,16 + X4,16 + X5,16 + X6,16 + X7,16 + X8,16 + X9,16 + X10,16 + X11,16 + X12,16 + X13,16 + X14,16 + X15,16 + X16,16 + X17,16 + X18,16 <=  1 
+ X1,17 + X2,17 + X3,17 + X4,17 + X5,17 + X6,17 + X7,17 + X8,17 + X9,17 + X10,17 + X11,17 + X12,17 + X13,17 + X14,17 + X15,17 + X16,17 + X17,17 + X18,17 <=  1 
+ X1,18 + X2,18 + X3,18 + X4,18 + X5,18 + X6,18 + X7,18 + X8,18 + X9,18 + X10,18 + X11,18 + X12,18 + X13,18 + X14,18 + X15,18 + X16,18 + X17,18 + X18,18 <=  1 
+ X1,19 + X2,19 + X3,19 + X4,19 + X5,19 + X6,19 + X7,19 + X8,19 + X9,19 + X10,19 + X11,19 + X12,19 + X13,19 + X14,19 + X15,19 + X16,19 + X17,19 + X18,19 <=  1 
+ X1,20 + X2,20 + X3,20 + X4,20 + X5,20 + X6,20 + X7,20 + X8,20 + X9,20 + X10,20 + X11,20 + X12,20 + X13,20 + X14,20 + X15,20 + X16,20 + X17,20 + X18,20 <=  1 
+ X1,21 + X2,21 + X3,21 + X4,21 + X5,21 + X6,21 + X7,21 + X8,21 + X9,21 + X10,21 + X11,21 + X12,21 + X13,21 + X14,21 + X15,21 + X16,21 + X17,21 + X18,21 <=  1 
+ X1,22 + X2,22 + X3,22 + X4,22 + X5,22 + X6,22 + X7,22 + X8,22 + X9,22 + X10,22 + X11,22 + X12,22 + X13,22 + X14,22 + X15,22 + X16,22 + X17,22 + X18,22 <=  1 
+ X1,23 + X2,23 + X3,23 + X4,23 + X5,23 + X6,23 + X7,23 + X8,23 + X9,23 + X10,23 + X11,23 + X12,23 + X13,23 + X14,23 + X15,23 + X16,23 + X17,23 + X18,23 <=  1 
+ X1,24 + X2,24 + X3,24 + X4,24 + X5,24 + X6,24 + X7,24 + X8,24 + X9,24 + X10,24 + X11,24 + X12,24 + X13,24 + X14,24 + X15,24 + X16,24 + X17,24 + X18,24 <=  1 
+ X1,25 + X2,25 + X3,25 + X4,25 + X5,25 + X6,25 + X7,25 + X8,25 + X9,25 + X10,25 + X11,25 + X12,25 + X13,25 + X14,25 + X15,25 + X16,25 + X17,25 + X18,25 <=  1 
X1,7 - X2,8 - X2,6 - X2,12 - X2,2 <= 0
X2,7 - X3,8 - X3,6 - X3,12 - X3,2 <= 0
X3,7 - X4,8 - X4,6 - X4,12 - X4,2 <= 0
X4,7 - X5,8 - X5,6 - X5,12 - X5,2 <= 0
X5,7 - X6,8 - X6,6 - X6,12 - X6,2 <= 0
X6,7 - X7,8 - X7,6 - X7,12 - X7,2 <= 0
X7,7 - X8,8 - X8,6 - X8,12 - X8,2 <= 0
X8,7 - X9,8 - X9,6 - X9,12 - X9,2 <= 0
X9,7 - X10,8 - X10,6 - X10,12 - X10,2 <= 0
X10,7 - X11,8 - X11,6 - X11,12 - X11,2 <= 0
X11,7 - X12,8 - X12,6 - X12,12 - X12,2 <= 0
X12,7 - X13,8 - X13,6 - X13,12 - X13,2 <= 0
X13,7 - X14,8 - X14,6 - X14,12 - X14,2 <= 0
X14,7 - X15,8 - X15,6 - X15,12 - X15,2 <= 0
X15,7 - X16,8 - X16,6 - X16,12 - X16,2 <= 0
X16,7 - X17,8 - X17,6 - X17,12 - X17,2 <= 0
X17,7 - X18,8 - X18,6 - X18,12 - X18,2 <= 0
X1,8 - X2,9 - X2,7 - X2,13 - X2,3 <= 0
X2,8 - X3,9 - X3,7 - X3,13 - X3,3 <= 0
X3,8 - X4,9 - X4,7 - X4,13 - X4,3 <= 0
X4,8 - X5,9 - X5,7 - X5,13 - X5,3 <= 0
X5,8 - X6,9 - X6,7 - X6,13 - X6,3 <= 0
X6,8 - X7,9 - X7,7 - X7,13 - X7,3 <= 0
X7,8 - X8,9 - X8,7 - X8,13 - X8,3 <= 0
X8,8 - X9,9 - X9,7 - X9,13 - X9,3 <= 0
X9,8 - X10,9 - X10,7 - X10,13 - X10,3 <= 0
X10,8 - X11,9 - X11,7 - X11,13 - X11,3 <= 0
X11,8 - X12,9 - X12,7 - X12,13 - X12,3 <= 0
X12,8 - X13,9 - X13,7 - X13,13 - X13,3 <= 0
X13,8 - X14,9 - X14,7 - X14,13 - X14,3 <= 0
X14,8 - X15,9 - X15,7 - X15,13 - X15,3 <= 0
X15,8 - X16,9 - X16,7 - X16,13 - X16,3 <= 0
X16,8 - X17,9 - X17,7 - X17,13 - X17,3 <= 0
X17,8 - X18,9 - X18,7 - X18,13 - X18,3 <= 0
X1,9 - X2,10 - X2,8 - X2,14 - X2,4 <= 0
X2,9 - X3,10 - X3,8 - X3,14 - X3,4 <= 0
X3,9 - X4,10 - X4,8 - X4,14 - X4,4 <= 0
X4,9 - X5,10 - X5,8 - X5,14 - X5,4 <= 0
X5,9 - X6,10 - X6,8 - X6,14 - X6,4 <= 0
X6,9 - X7,10 - X7,8 - X7,14 - X7,4 <= 0
X7,9 - X8,10 - X8,8 - X8,14 - X8,4 <= 0
X8,9 - X9,10 - X9,8 - X9,14 - X9,4 <= 0
X9,9 - X10,10 - X10,8 - X10,14 - X10,4 <= 0
X10,9 - X11,10 - X11,8 - X11,14 - X11,4 <= 0
X11,9 - X12,10 - X12,8 - X12,14 - X12,4 <= 0
X12,9 - X13,10 - X13,8 - X13,14 - X13,4 <= 0
X13,9 - X14,10 - X14,8 - X14,14 - X14,4 <= 0
X14,9 - X15,10 - X15,8 - X15,14 - X15,4 <= 0
X15,9 - X16,10 - X16,8 - X16,14 - X16,4 <= 0
X16,9 - X17,10 - X17,8 - X17,14 - X17,4 <= 0
X17,9 - X18,10 - X18,8 - X18,14 - X18,4 <= 0
X1,12 - X2,13 - X2,11 - X2,17 - X2,7 <= 0
X2,12 - X3,13 - X3,11 - X3,17 - X3,7 <= 0
X3,12 - X4,13 - X4,11 - X4,17 - X4,7 <= 0
X4,12 - X5,13 - X5,11 - X5,17 - X5,7 <= 0
X5,12 - X6,13 - X6,11 - X6,17 - X6,7 <= 0
X6,12 - X7,13 - X7,11 - X7,17 - X7,7 <= 0
X7,12 - X8,13 - X8,11 - X8,17 - X8,7 <= 0
X8,12 - X9,13 - X9,11 - X9,17 - X9,7 <= 0
X9,12 - X10,13 - X10,11 - X10,17 - X10,7 <= 0
X10,12 - X11,13 - X11,11 - X11,17 - X11,7 <= 0
X11,12 - X12,13 - X12,11 - X12,17 - X12,7 <= 0
X12,12 - X13,13 - X13,11 - X13,17 - X13,7 <= 0
X13,12 - X14,13 - X14,11 - X14,17 - X14,7 <= 0
X14,12 - X15,13 - X15,11 - X15,17 - X15,7 <= 0
X15,12 - X16,13 - X16,11 - X16,17 - X16,7 <= 0
X16,12 - X17,13 - X17,11 - X17,17 - X17,7 <= 0
X17,12 - X18,13 - X18,11 - X18,17 - X18,7 <= 0
X1,13 - X2,14 - X2,12 - X2,18 - X2,8 <= 0
X2,13 - X3,14 - X3,12 - X3,18 - X3,8 <= 0
X3,13 - X4,14 - X4,12 - X4,18 - X4,8 <= 0
X4,13 - X5,14 - X5,12 - X5,18 - X5,8 <= 0
X5,13 - X6,14 - X6,12 - X6,18 - X6,8 <= 0
X6,13 - X7,14 - X7,12 - X7,18 - X7,8 <= 0
X7,13 - X8,14 - X8,12 - X8,18 - X8,8 <= 0
X8,13 - X9,14 - X9,12 - X9,18 - X9,8 <= 0
X9,13 - X10,14 - X10,12 - X10,18 - X10,8 <= 0
X10,13 - X11,14 - X11,12 - X11,18 - X11,8 <= 0
X11,13 - X12,14 - X12,12 - X12,18 - X12,8 <= 0
X12,13 - X13,14 - X13,12 - X13,18 - X13,8 <= 0
X13,13 - X14,14 - X14,12 - X14,18 - X14,8 <= 0
X14,13 - X15,14 - X15,12 - X15,18 - X15,8 <= 0
X15,13 - X16,14 - X16,12 - X16,18 - X16,8 <= 0
X16,13 - X17,14 - X17,12 - X17,18 - X17,8 <= 0
X17,13 - X18,14 - X18,12 - X18,18 - X18,8 <= 0
X1,14 - X2,15 - X2,13 - X2,19 - X2,9 <= 0
X2,14 - X3,15 - X3,13 - X3,19 - X3,9 <= 0
X3,14 - X4,15 - X4,13 - X4,19 - X4,9 <= 0
X4,14 - X5,15 - X5,13 - X5,19 - X5,9 <= 0
X5,14 - X6,15 - X6,13 - X6,19 - X6,9 <= 0
X6,14 - X7,15 - X7,13 - X7,19 - X7,9 <= 0
X7,14 - X8,15 - X8,13 - X8,19 - X8,9 <= 0
X8,14 - X9,15 - X9,13 - X9,19 - X9,9 <= 0
X9,14 - X10,15 - X10,13 - X10,19 - X10,9 <= 0
X10,14 - X11,15 - X11,13 - X11,19 - X11,9 <= 0
X11,14 - X12,15 - X12,13 - X12,19 - X12,9 <= 0
X12,14 - X13,15 - X13,13 - X13,19 - X13,9 <= 0
X13,14 - X14,15 - X14,13 - X14,19 - X14,9 <= 0
X14,14 - X15,15 - X15,13 - X15,19 - X15,9 <= 0
X15,14 - X16,15 - X16,13 - X16,19 - X16,9 <= 0
X16,14 - X17,15 - X17,13 - X17,19 - X17,9 <= 0
X17,14 - X18,15 - X18,13 - X18,19 - X18,9 <= 0
X1,17 - X2,18 - X2,16 - X2,22 - X2,12 <= 0
X2,17 - X3,18 - X3,16 - X3,22 - X3,12 <= 0
X3,17 - X4,18 - X4,16 - X4,22 - X4,12 <= 0
X4,17 - X5,18 - X5,16 - X5,22 - X5,12 <= 0
X5,17 - X6,18 - X6,16 - X6,22 - X6,12 <= 0
X6,17 - X7,18 - X7,16 - X7,22 - X7,12 <= 0
X7,17 - X8,18 - X8,16 - X8,22 - X8,12 <= 0
X8,17 - X9,18 - X9,16 - X9,22 - X9,12 <= 0
X9,17 - X10,18 - X10,16 - X10,22 - X10,12 <= 0
X10,17 - X11,18 - X11,16 - X11,22 - X11,12 <= 0
X11,17 - X12,18 - X12,16 - X12,22 - X12,12 <= 0
X12,17 - X13,18 - X13,16 - X13,22 - X13,12 <= 0
X13,17 - X14,18 - X14,16 - X14,22 - X14,12 <= 0
X14,17 - X15,18 - X15,16 - X15,22 - X15,12 <= 0
X15,17 - X16,18 - X16,16 - X16,22 - X16,12 <= 0
X16,17 - X17,18 - X17,16 - X17,22 - X17,12 <= 0
X17,17 - X18,18 - X18,16 - X18,22 - X18,12 <= 0
X1,18 - X2,19 - X2,17 - X2,23 - X2,13 <= 0
X2,18 - X3,19 - X3,17 - X3,23 - X3,13 <= 0
X3,18 - X4,19 - X4,17 - X4,23 - X4,13 <= 0
X4,18 - X5,19 - X5,17 - X5,23 - X5,13 <= 0
X5,18 - X6,19 - X6,17 - X6,23 - X6,13 <= 0
X6,18 - X7,19 - X7,17 - X7,23 - X7,13 <= 0
X7,18 - X8,19 - X8,17 - X8,23 - X8,13 <= 0
X8,18 - X9,19 - X9,17 - X9,23 - X9,13 <= 0
X9,18 - X10,19 - X10,17 - X10,23 - X10,13 <= 0
X10,18 - X11,19 - X11,17 - X11,23 - X11,13 <= 0
X11,18 - X12,19 - X12,17 - X12,23 - X12,13 <= 0
X12,18 - X13,19 - X13,17 - X13,23 - X13,13 <= 0
X13,18 - X14,19 - X14,17 - X14,23 - X14,13 <= 0
X14,18 - X15,19 - X15,17 - X15,23 - X15,13 <= 0
X15,18 - X16,19 - X16,17 - X16,23 - X16,13 <= 0
X16,18 - X17,19 - X17,17 - X17,23 - X17,13 <= 0
X17,18 - X18,19 - X18,17 - X18,23 - X18,13 <= 0
X1,19 - X2,20 - X2,18 - X2,24 - X2,14 <= 0
X2,19 - X3,20 - X3,18 - X3,24 - X3,14 <= 0
X3,19 - X4,20 - X4,18 - X4,24 - X4,14 <= 0
X4,19 - X5,20 - X5,18 - X5,24 - X5,14 <= 0
X5,19 - X6,20 - X6,18 - X6,24 - X6,14 <= 0
X6,19 - X7,20 - X7,18 - X7,24 - X7,14 <= 0
X7,19 - X8,20 - X8,18 - X8,24 - X8,14 <= 0
X8,19 - X9,20 - X9,18 - X9,24 - X9,14 <= 0
X9,19 - X10,20 - X10,18 - X10,24 - X10,14 <= 0
X10,19 - X11,20 - X11,18 - X11,24 - X11,14 <= 0
X11,19 - X12,20 - X12,18 - X12,24 - X12,14 <= 0
X12,19 - X13,20 - X13,18 - X13,24 - X13,14 <= 0
X13,19 - X14,20 - X14,18 - X14,24 - X14,14 <= 0
X14,19 - X15,20 - X15,18 - X15,24 - X15,14 <= 0
X15,19 - X16,20 - X16,18 - X16,24 - X16,14 <= 0
X16,19 - X17,20 - X17,18 - X17,24 - X17,14 <= 0
X17,19 - X18,20 - X18,18 - X18,24 - X18,14 <= 0
X1,2 - X2,3 - X2,1 - X2,7  <= 0
X2,2 - X3,3 - X3,1 - X3,7  <= 0
X3,2 - X4,3 - X4,1 - X4,7  <= 0
X4,2 - X5,3 - X5,1 - X5,7  <= 0
X5,2 - X6,3 - X6,1 - X6,7  <= 0
X6,2 - X7,3 - X7,1 - X7,7  <= 0
X7,2 - X8,3 - X8,1 - X8,7  <= 0
X8,2 - X9,3 - X9,1 - X9,7  <= 0
X9,2 - X10,3 - X10,1 - X10,7  <= 0
X10,2 - X11,3 - X11,1 - X11,7  <= 0
X11,2 - X12,3 - X12,1 - X12,7  <= 0
X12,2 - X13,3 - X13,1 - X13,7  <= 0
X13,2 - X14,3 - X14,1 - X14,7  <= 0
X14,2 - X15,3 - X15,1 - X15,7  <= 0
X15,2 - X16,3 - X16,1 - X16,7  <= 0
X16,2 - X17,3 - X17,1 - X17,7  <= 0
X17,2 - X18,3 - X18,1 - X18,7  <= 0
X1,3 - X2,4 - X2,2 - X2,8  <= 0
X2,3 - X3,4 - X3,2 - X3,8  <= 0
X3,3 - X4,4 - X4,2 - X4,8  <= 0
X4,3 - X5,4 - X5,2 - X5,8  <= 0
X5,3 - X6,4 - X6,2 - X6,8  <= 0
X6,3 - X7,4 - X7,2 - X7,8  <= 0
X7,3 - X8,4 - X8,2 - X8,8  <= 0
X8,3 - X9,4 - X9,2 - X9,8  <= 0
X9,3 - X10,4 - X10,2 - X10,8  <= 0
X10,3 - X11,4 - X11,2 - X11,8  <= 0
X11,3 - X12,4 - X12,2 - X12,8  <= 0
X12,3 - X13,4 - X13,2 - X13,8  <= 0
X13,3 - X14,4 - X14,2 - X14,8  <= 0
X14,3 - X15,4 - X15,2 - X15,8  <= 0
X15,3 - X16,4 - X16,2 - X16,8  <= 0
X16,3 - X17,4 - X17,2 - X17,8  <= 0
X17,3 - X18,4 - X18,2 - X18,8  <= 0
X1,4 - X2,5 - X2,3 - X2,9  <= 0
X2,4 - X3,5 - X3,3 - X3,9  <= 0
X3,4 - X4,5 - X4,3 - X4,9  <= 0
X4,4 - X5,5 - X5,3 - X5,9  <= 0
X5,4 - X6,5 - X6,3 - X6,9  <= 0
X6,4 - X7,5 - X7,3 - X7,9  <= 0
X7,4 - X8,5 - X8,3 - X8,9  <= 0
X8,4 - X9,5 - X9,3 - X9,9  <= 0
X9,4 - X10,5 - X10,3 - X10,9  <= 0
X10,4 - X11,5 - X11,3 - X11,9  <= 0
X11,4 - X12,5 - X12,3 - X12,9  <= 0
X12,4 - X13,5 - X13,3 - X13,9  <= 0
X13,4 - X14,5 - X14,3 - X14,9  <= 0
X14,4 - X15,5 - X15,3 - X15,9  <= 0
X15,4 - X16,5 - X16,3 - X16,9  <= 0
X16,4 - X17,5 - X17,3 - X17,9  <= 0
X17,4 - X18,5 - X18,3 - X18,9  <= 0
X1,22 - X2,23 - X2,21 - X2,17  <= 0
X2,22 - X3,23 - X3,21 - X3,17  <= 0
X3,22 - X4,23 - X4,21 - X4,17  <= 0
X4,22 - X5,23 - X5,21 - X5,17  <= 0
X5,22 - X6,23 - X6,21 - X6,17  <= 0
X6,22 - X7,23 - X7,21 - X7,17  <= 0
X7,22 - X8,23 - X8,21 - X8,17  <= 0
X8,22 - X9,23 - X9,21 - X9,17  <= 0
X9,22 - X10,23 - X10,21 - X10,17  <= 0
X10,22 - X11,23 - X11,21 - X11,17  <= 0
X11,22 - X12,23 - X12,21 - X12,17  <= 0
X12,22 - X13,23 - X13,21 - X13,17  <= 0
X13,22 - X14,23 - X14,21 - X14,17  <= 0
X14,22 - X15,23 - X15,21 - X15,17  <= 0
X15,22 - X16,23 - X16,21 - X16,17  <= 0
X16,22 - X17,23 - X17,21 - X17,17  <= 0
X17,22 - X18,23 - X18,21 - X18,17  <= 0
X1,23 - X2,24 - X2,22 - X2,18  <= 0
X2,23 - X3,24 - X3,22 - X3,18  <= 0
X3,23 - X4,24 - X4,22 - X4,18  <= 0
X4,23 - X5,24 - X5,22 - X5,18  <= 0
X5,23 - X6,24 - X6,22 - X6,18  <= 0
X6,23 - X7,24 - X7,22 - X7,18  <= 0
X7,23 - X8,24 - X8,22 - X8,18  <= 0
X8,23 - X9,24 - X9,22 - X9,18  <= 0
X9,23 - X10,24 - X10,22 - X10,18  <= 0
X10,23 - X11,24 - X11,22 - X11,18  <= 0
X11,23 - X12,24 - X12,22 - X12,18  <= 0
X12,23 - X13,24 - X13,22 - X13,18  <= 0
X13,23 - X14,24 - X14,22 - X14,18  <= 0
X14,23 - X15,24 - X15,22 - X15,18  <= 0
X15,23 - X16,24 - X16,22 - X16,18  <= 0
X16,23 - X17,24 - X17,22 - X17,18  <= 0
X17,23 - X18,24 - X18,22 - X18,18  <= 0
X1,24 - X2,25 - X2,23 - X2,19  <= 0
X2,24 - X3,25 - X3,23 - X3,19  <= 0
X3,24 - X4,25 - X4,23 - X4,19  <= 0
X4,24 - X5,25 - X5,23 - X5,19  <= 0
X5,24 - X6,25 - X6,23 - X6,19  <= 0
X6,24 - X7,25 - X7,23 - X7,19  <= 0
X7,24 - X8,25 - X8,23 - X8,19  <= 0
X8,24 - X9,25 - X9,23 - X9,19  <= 0
X9,24 - X10,25 - X10,23 - X10,19  <= 0
X10,24 - X11,25 - X11,23 - X11,19  <= 0
X11,24 - X12,25 - X12,23 - X12,19  <= 0
X12,24 - X13,25 - X13,23 - X13,19  <= 0
X13,24 - X14,25 - X14,23 - X14,19  <= 0
X14,24 - X15,25 - X15,23 - X15,19  <= 0
X15,24 - X16,25 - X16,23 - X16,19  <= 0
X16,24 - X17,25 - X17,23 - X17,19  <= 0
X17,24 - X18,25 - X18,23 - X18,19  <= 0
X1,6 - X2,7 - X2,11 - X2,1  <= 0
X2,6 - X3,7 - X3,11 - X3,1  <= 0
X3,6 - X4,7 - X4,11 - X4,1  <= 0
X4,6 - X5,7 - X5,11 - X5,1  <= 0
X5,6 - X6,7 - X6,11 - X6,1  <= 0
X6,6 - X7,7 - X7,11 - X7,1  <= 0
X7,6 - X8,7 - X8,11 - X8,1  <= 0
X8,6 - X9,7 - X9,11 - X9,1  <= 0
X9,6 - X10,7 - X10,11 - X10,1  <= 0
X10,6 - X11,7 - X11,11 - X11,1  <= 0
X11,6 - X12,7 - X12,11 - X12,1  <= 0
X12,6 - X13,7 - X13,11 - X13,1  <= 0
X13,6 - X14,7 - X14,11 - X14,1  <= 0
X14,6 - X15,7 - X15,11 - X15,1  <= 0
X15,6 - X16,7 - X16,11 - X16,1  <= 0
X16,6 - X17,7 - X17,11 - X17,1  <= 0
X17,6 - X18,7 - X18,11 - X18,1  <= 0
X1,11 - X2,12 - X2,16 - X2,6  <= 0
X2,11 - X3,12 - X3,16 - X3,6  <= 0
X3,11 - X4,12 - X4,16 - X4,6  <= 0
X4,11 - X5,12 - X5,16 - X5,6  <= 0
X5,11 - X6,12 - X6,16 - X6,6  <= 0
X6,11 - X7,12 - X7,16 - X7,6  <= 0
X7,11 - X8,12 - X8,16 - X8,6  <= 0
X8,11 - X9,12 - X9,16 - X9,6  <= 0
X9,11 - X10,12 - X10,16 - X10,6  <= 0
X10,11 - X11,12 - X11,16 - X11,6  <= 0
X11,11 - X12,12 - X12,16 - X12,6  <= 0
X12,11 - X13,12 - X13,16 - X13,6  <= 0
X13,11 - X14,12 - X14,16 - X14,6  <= 0
X14,11 - X15,12 - X15,16 - X15,6  <= 0
X15,11 - X16,12 - X16,16 - X16,6  <= 0
X16,11 - X17,12 - X17,16 - X17,6  <= 0
X17,11 - X18,12 - X18,16 - X18,6  <= 0
X1,16 - X2,17 - X2,21 - X2,11  <= 0
X2,16 - X3,17 - X3,21 - X3,11  <= 0
X3,16 - X4,17 - X4,21 - X4,11  <= 0
X4,16 - X5,17 - X5,21 - X5,11  <= 0
X5,16 - X6,17 - X6,21 - X6,11  <= 0
X6,16 - X7,17 - X7,21 - X7,11  <= 0
X7,16 - X8,17 - X8,21 - X8,11  <= 0
X8,16 - X9,17 - X9,21 - X9,11  <= 0
X9,16 - X10,17 - X10,21 - X10,11  <= 0
X10,16 - X11,17 - X11,21 - X11,11  <= 0
X11,16 - X12,17 - X12,21 - X12,11  <= 0
X12,16 - X13,17 - X13,21 - X13,11  <= 0
X13,16 - X14,17 - X14,21 - X14,11  <= 0
X14,16 - X15,17 - X15,21 - X15,11  <= 0
X15,16 - X16,17 - X16,21 - X16,11  <= 0
X16,16 - X17,17 - X17,21 - X17,11  <= 0
X17,16 - X18,17 - X18,21 - X18,11  <= 0
X1,10 - X2,9 - X2,15 - X2,5  <= 0
X2,10 - X3,9 - X3,15 - X3,5  <= 0
X3,10 - X4,9 - X4,15 - X4,5  <= 0
X4,10 - X5,9 - X5,15 - X5,5  <= 0
X5,10 - X6,9 - X6,15 - X6,5  <= 0
X6,10 - X7,9 - X7,15 - X7,5  <= 0
X7,10 - X8,9 - X8,15 - X8,5  <= 0
X8,10 - X9,9 - X9,15 - X9,5  <= 0
X9,10 - X10,9 - X10,15 - X10,5  <= 0
X10,10 - X11,9 - X11,15 - X11,5  <= 0
X11,10 - X12,9 - X12,15 - X12,5  <= 0
X12,10 - X13,9 - X13,15 - X13,5  <= 0
X13,10 - X14,9 - X14,15 - X14,5  <= 0
X14,10 - X15,9 - X15,15 - X15,5  <= 0
X15,10 - X16,9 - X16,15 - X16,5  <= 0
X16,10 - X17,9 - X17,15 - X17,5  <= 0
X17,10 - X18,9 - X18,15 - X18,5  <= 0
X1,15 - X2,14 - X2,20 - X2,10  <= 0
X2,15 - X3,14 - X3,20 - X3,10  <= 0
X3,15 - X4,14 - X4,20 - X4,10  <= 0
X4,15 - X5,14 - X5,20 - X5,10  <= 0
X5,15 - X6,14 - X6,20 - X6,10  <= 0
X6,15 - X7,14 - X7,20 - X7,10  <= 0
X7,15 - X8,14 - X8,20 - X8,10  <= 0
X8,15 - X9,14 - X9,20 - X9,10  <= 0
X9,15 - X10,14 - X10,20 - X10,10  <= 0
X10,15 - X11,14 - X11,20 - X11,10  <= 0
X11,15 - X12,14 - X12,20 - X12,10  <= 0
X12,15 - X13,14 - X13,20 - X13,10  <= 0
X13,15 - X14,14 - X14,20 - X14,10  <= 0
X14,15 - X15,14 - X15,20 - X15,10  <= 0
X15,15 - X16,14 - X16,20 - X16,10  <= 0
X16,15 - X17,14 - X17,20 - X17,10  <= 0
X17,15 - X18,14 - X18,20 - X18,10  <= 0
X1,20 - X2,19 - X2,25 - X2,15  <= 0
X2,20 - X3,19 - X3,25 - X3,15  <= 0
X3,20 - X4,19 - X4,25 - X4,15  <= 0
X4,20 - X5,19 - X5,25 - X5,15  <= 0
X5,20 - X6,19 - X6,25 - X6,15  <= 0
X6,20 - X7,19 - X7,25 - X7,15  <= 0
X7,20 - X8,19 - X8,25 - X8,15  <= 0
X8,20 - X9,19 - X9,25 - X9,15  <= 0
X9,20 - X10,19 - X10,25 - X10,15  <= 0
X10,20 - X11,19 - X11,25 - X11,15  <= 0
X11,20 - X12,19 - X12,25 - X12,15  <= 0
X12,20 - X13,19 - X13,25 - X13,15  <= 0
X13,20 - X14,19 - X14,25 - X14,15  <= 0
X14,20 - X15,19 - X15,25 - X15,15  <= 0
X15,20 - X16,19 - X16,25 - X16,15  <= 0
X16,20 - X17,19 - X17,25 - X17,15  <= 0
X17,20 - X18,19 - X18,25 - X18,15  <= 0
X1,1 - X2,2 - X2,6  <= 0
X1,5 - X2,4 - X2,10  <= 0
X1,21 - X2,22 - X2,16  <= 0
X1,25 - X2,24 - X2,20  <= 0
X2,1 - X3,2 - X3,6  <= 0
X2,5 - X3,4 - X3,10  <= 0
X2,21 - X3,22 - X3,16  <= 0
X2,25 - X3,24 - X3,20  <= 0
X3,1 - X4,2 - X4,6  <= 0
X3,5 - X4,4 - X4,10  <= 0
X3,21 - X4,22 - X4,16  <= 0
X3,25 - X4,24 - X4,20  <= 0
X4,1 - X5,2 - X5,6  <= 0
X4,5 - X5,4 - X5,10  <= 0
X4,21 - X5,22 - X5,16  <= 0
X4,25 - X5,24 - X5,20  <= 0
X5,1 - X6,2 - X6,6  <= 0
X5,5 - X6,4 - X6,10  <= 0
X5,21 - X6,22 - X6,16  <= 0
X5,25 - X6,24 - X6,20  <= 0
X6,1 - X7,2 - X7,6  <= 0
X6,5 - X7,4 - X7,10  <= 0
X6,21 - X7,22 - X7,16  <= 0
X6,25 - X7,24 - X7,20  <= 0
X7,1 - X8,2 - X8,6  <= 0
X7,5 - X8,4 - X8,10  <= 0
X7,21 - X8,22 - X8,16  <= 0
X7,25 - X8,24 - X8,20  <= 0
X8,1 - X9,2 - X9,6  <= 0
X8,5 - X9,4 - X9,10  <= 0
X8,21 - X9,22 - X9,16  <= 0
X8,25 - X9,24 - X9,20  <= 0
X9,1 - X10,2 - X10,6  <= 0
X9,5 - X10,4 - X10,10  <= 0
X9,21 - X10,22 - X10,16  <= 0
X9,25 - X10,24 - X10,20  <= 0
X10,1 - X11,2 - X11,6  <= 0
X10,5 - X11,4 - X11,10  <= 0
X10,21 - X11,22 - X11,16  <= 0
X10,25 - X11,24 - X11,20  <= 0
X11,1 - X12,2 - X12,6  <= 0
X11,5 - X12,4 - X12,10  <= 0
X11,21 - X12,22 - X12,16  <= 0
X11,25 - X12,24 - X12,20  <= 0
X12,1 - X13,2 - X13,6  <= 0
X12,5 - X13,4 - X13,10  <= 0
X12,21 - X13,22 - X13,16  <= 0
X12,25 - X13,24 - X13,20  <= 0
X13,1 - X14,2 - X14,6  <= 0
X13,5 - X14,4 - X14,10  <= 0
X13,21 - X14,22 - X14,16  <= 0
X13,25 - X14,24 - X14,20  <= 0
X14,1 - X15,2 - X15,6  <= 0
X14,5 - X15,4 - X15,10  <= 0
X14,21 - X15,22 - X15,16  <= 0
X14,25 - X15,24 - X15,20  <= 0
X15,1 - X16,2 - X16,6  <= 0
X15,5 - X16,4 - X16,10  <= 0
X15,21 - X16,22 - X16,16  <= 0
X15,25 - X16,24 - X16,20  <= 0
X16,1 - X17,2 - X17,6  <= 0
X16,5 - X17,4 - X17,10  <= 0
X16,21 - X17,22 - X17,16  <= 0
X16,25 - X17,24 - X17,20  <= 0
X17,1 - X18,2 - X18,6  <= 0
X17,5 - X18,4 - X18,10  <= 0
X17,21 - X18,22 - X18,16  <= 0
X17,25 - X18,24 - X18,20  <= 0
+ X1,1 + X2,1 + X3,1 + X5,1 + X8,1 + X9,1 + X15,1  - I1 = 0 
+ X1,2 + X2,2 + X3,2 + X5,2 + X8,2 + X9,2 + X15,2  - I2 = 0 
+ X1,3 + X2,3 + X3,3 + X5,3 + X8,3 + X9,3 + X15,3  - I3 = 0 
+ X1,4 + X2,4 + X3,4 + X5,4 + X8,4 + X9,4 + X15,4  - I4 = 0 
+ X1,5 + X2,5 + X3,5 + X5,5 + X8,5 + X9,5 + X15,5  - I5 = 0 
+ X1,6 + X2,6 + X3,6 + X5,6 + X8,6 + X9,6 + X15,6  - I6 = 0 
+ X1,7 + X2,7 + X3,7 + X5,7 + X8,7 + X9,7 + X15,7  - I7 = 0 
+ X1,8 + X2,8 + X3,8 + X5,8 + X8,8 + X9,8 + X15,8  - I8 = 0 
+ X1,9 + X2,9 + X3,9 + X5,9 + X8,9 + X9,9 + X15,9  - I9 = 0 
+ X1,10 + X2,10 + X3,10 + X5,10 + X8,10 + X9,10 + X15,10  - I10 = 0 
+ X1,11 + X2,11 + X3,11 + X5,11 + X8,11 + X9,11 + X15,11  - I11 = 0 
+ X1,12 + X2,12 + X3,12 + X5,12 + X8,12 + X9,12 + X15,12  - I12 = 0 
+ X1,13 + X2,13 + X3,13 + X5,13 + X8,13 + X9,13 + X15,13  - I13 = 0 
+ X1,14 + X2,14 + X3,14 + X5,14 + X8,14 + X9,14 + X15,14  - I14 = 0 
+ X1,15 + X2,15 + X3,15 + X5,15 + X8,15 + X9,15 + X15,15  - I15 = 0 
+ X1,16 + X2,16 + X3,16 + X5,16 + X8,16 + X9,16 + X15,16  - I16 = 0 
+ X1,17 + X2,17 + X3,17 + X5,17 + X8,17 + X9,17 + X15,17  - I17 = 0 
+ X1,18 + X2,18 + X3,18 + X5,18 + X8,18 + X9,18 + X15,18  - I18 = 0 
+ X1,19 + X2,19 + X3,19 + X5,19 + X8,19 + X9,19 + X15,19  - I19 = 0 
+ X1,20 + X2,20 + X3,20 + X5,20 + X8,20 + X9,20 + X15,20  - I20 = 0 
+ X1,21 + X2,21 + X3,21 + X5,21 + X8,21 + X9,21 + X15,21  - I21 = 0 
+ X1,22 + X2,22 + X3,22 + X5,22 + X8,22 + X9,22 + X15,22  - I22 = 0 
+ X1,23 + X2,23 + X3,23 + X5,23 + X8,23 + X9,23 + X15,23  - I23 = 0 
+ X1,24 + X2,24 + X3,24 + X5,24 + X8,24 + X9,24 + X15,24  - I24 = 0 
+ X1,25 + X2,25 + X3,25 + X5,25 + X8,25 + X9,25 + X15,25  - I25 = 0 
 

I1 + I2 - 2 C1,2 >= 0
I1 + I6 - 2 C1,6 >= 0
I2 + I3 - 2 C2,3 >= 0
I2 + I7 - 2 C2,7 >= 0
I3 + I4 - 2 C3,4 >= 0
I3 + I8 - 2 C3,8 >= 0
I4 + I5 - 2 C4,5 >= 0
I4 + I9 - 2 C4,9 >= 0
I5 + I10 - 2 C5,10 >= 0
I6 + I7 - 2 C6,7 >= 0
I6 + I11 - 2 C6,11 >= 0
I7 + I8 - 2 C7,8 >= 0
I7 + I12 - 2 C7,12 >= 0
I8 + I9 - 2 C8,9 >= 0
I8 + I13 - 2 C8,13 >= 0
I9 + I10 - 2 C9,10 >= 0
I9 + I14 - 2 C9,14 >= 0
I10 + I15 - 2 C10,15 >= 0
I11 + I12 - 2 C11,12 >= 0
I11 + I16 - 2 C11,16 >= 0
I12 + I13 - 2 C12,13 >= 0
I12 + I17 - 2 C12,17 >= 0
I13 + I14 - 2 C13,14 >= 0
I13 + I18 - 2 C13,18 >= 0
I14 + I15 - 2 C14,15 >= 0
I14 + I19 - 2 C14,19 >= 0
I15 + I20 - 2 C15,20 >= 0
I16 + I17 - 2 C16,17 >= 0
I16 + I21 - 2 C16,21 >= 0
I17 + I18 - 2 C17,18 >= 0
I17 + I22 - 2 C17,22 >= 0
I18 + I19 - 2 C18,19 >= 0
I18 + I23 - 2 C18,23 >= 0
I19 + I20 - 2 C19,20 >= 0
I19 + I24 - 2 C19,24 >= 0
I20 + I25 - 2 C20,25 >= 0
I21 + I22 - 2 C21,22 >= 0
I22 + I23 - 2 C22,23 >= 0
I23 + I24 - 2 C23,24 >= 0
I24 + I25 - 2 C24,25 >= 0
 

binary 
C1,2
C1,6
C2,3
C2,7
C3,4
C3,8
C4,5
C4,9
C5,10
C6,7
C6,11
C7,8
C7,12
C8,9
C8,13
C9,10
C9,14
C10,15
C11,12
C11,16
C12,13
C12,17
C13,14
C13,18
C14,15
C14,19
C15,20
C16,17
C16,21
C17,18
C17,22
C18,19
C18,23
C19,20
C19,24
C20,25
C21,22
C22,23
C23,24
C24,25
X1,1
X1,2
X1,3
X1,4
X1,5
X1,6
X1,7
X1,8
X1,9
X1,10
X1,11
X1,12
X1,13
X1,14
X1,15
X1,16
X1,17
X1,18
X1,19
X1,20
X1,21
X1,22
X1,23
X1,24
X1,25
X2,1
X2,2
X2,3
X2,4
X2,5
X2,6
X2,7
X2,8
X2,9
X2,10
X2,11
X2,12
X2,13
X2,14
X2,15
X2,16
X2,17
X2,18
X2,19
X2,20
X2,21
X2,22
X2,23
X2,24
X2,25
X3,1
X3,2
X3,3
X3,4
X3,5
X3,6
X3,7
X3,8
X3,9
X3,10
X3,11
X3,12
X3,13
X3,14
X3,15
X3,16
X3,17
X3,18
X3,19
X3,20
X3,21
X3,22
X3,23
X3,24
X3,25
X4,1
X4,2
X4,3
X4,4
X4,5
X4,6
X4,7
X4,8
X4,9
X4,10
X4,11
X4,12
X4,13
X4,14
X4,15
X4,16
X4,17
X4,18
X4,19
X4,20
X4,21
X4,22
X4,23
X4,24
X4,25
X5,1
X5,2
X5,3
X5,4
X5,5
X5,6
X5,7
X5,8
X5,9
X5,10
X5,11
X5,12
X5,13
X5,14
X5,15
X5,16
X5,17
X5,18
X5,19
X5,20
X5,21
X5,22
X5,23
X5,24
X5,25
X6,1
X6,2
X6,3
X6,4
X6,5
X6,6
X6,7
X6,8
X6,9
X6,10
X6,11
X6,12
X6,13
X6,14
X6,15
X6,16
X6,17
X6,18
X6,19
X6,20
X6,21
X6,22
X6,23
X6,24
X6,25
X7,1
X7,2
X7,3
X7,4
X7,5
X7,6
X7,7
X7,8
X7,9
X7,10
X7,11
X7,12
X7,13
X7,14
X7,15
X7,16
X7,17
X7,18
X7,19
X7,20
X7,21
X7,22
X7,23
X7,24
X7,25
X8,1
X8,2
X8,3
X8,4
X8,5
X8,6
X8,7
X8,8
X8,9
X8,10
X8,11
X8,12
X8,13
X8,14
X8,15
X8,16
X8,17
X8,18
X8,19
X8,20
X8,21
X8,22
X8,23
X8,24
X8,25
X9,1
X9,2
X9,3
X9,4
X9,5
X9,6
X9,7
X9,8
X9,9
X9,10
X9,11
X9,12
X9,13
X9,14
X9,15
X9,16
X9,17
X9,18
X9,19
X9,20
X9,21
X9,22
X9,23
X9,24
X9,25
X10,1
X10,2
X10,3
X10,4
X10,5
X10,6
X10,7
X10,8
X10,9
X10,10
X10,11
X10,12
X10,13
X10,14
X10,15
X10,16
X10,17
X10,18
X10,19
X10,20
X10,21
X10,22
X10,23
X10,24
X10,25
X11,1
X11,2
X11,3
X11,4
X11,5
X11,6
X11,7
X11,8
X11,9
X11,10
X11,11
X11,12
X11,13
X11,14
X11,15
X11,16
X11,17
X11,18
X11,19
X11,20
X11,21
X11,22
X11,23
X11,24
X11,25
X12,1
X12,2
X12,3
X12,4
X12,5
X12,6
X12,7
X12,8
X12,9
X12,10
X12,11
X12,12
X12,13
X12,14
X12,15
X12,16
X12,17
X12,18
X12,19
X12,20
X12,21
X12,22
X12,23
X12,24
X12,25
X13,1
X13,2
X13,3
X13,4
X13,5
X13,6
X13,7
X13,8
X13,9
X13,10
X13,11
X13,12
X13,13
X13,14
X13,15
X13,16
X13,17
X13,18
X13,19
X13,20
X13,21
X13,22
X13,23
X13,24
X13,25
X14,1
X14,2
X14,3
X14,4
X14,5
X14,6
X14,7
X14,8
X14,9
X14,10
X14,11
X14,12
X14,13
X14,14
X14,15
X14,16
X14,17
X14,18
X14,19
X14,20
X14,21
X14,22
X14,23
X14,24
X14,25
X15,1
X15,2
X15,3
X15,4
X15,5
X15,6
X15,7
X15,8
X15,9
X15,10
X15,11
X15,12
X15,13
X15,14
X15,15
X15,16
X15,17
X15,18
X15,19
X15,20
X15,21
X15,22
X15,23
X15,24
X15,25
X16,1
X16,2
X16,3
X16,4
X16,5
X16,6
X16,7
X16,8
X16,9
X16,10
X16,11
X16,12
X16,13
X16,14
X16,15
X16,16
X16,17
X16,18
X16,19
X16,20
X16,21
X16,22
X16,23
X16,24
X16,25
X17,1
X17,2
X17,3
X17,4
X17,5
X17,6
X17,7
X17,8
X17,9
X17,10
X17,11
X17,12
X17,13
X17,14
X17,15
X17,16
X17,17
X17,18
X17,19
X17,20
X17,21
X17,22
X17,23
X17,24
X17,25
X18,1
X18,2
X18,3
X18,4
X18,5
X18,6
X18,7
X18,8
X18,9
X18,10
X18,11
X18,12
X18,13
X18,14
X18,15
X18,16
X18,17
X18,18
X18,19
X18,20
X18,21
X18,22
X18,23
X18,24
X18,25
I1 
I2 
I3 
I4 
I5 
I6 
I7 
I8 
I9 
I10 
I11 
I12 
I13 
I14 
I15 
I16 
I17 
I18 
I19 
I20 
I21 
I22 
I23 
I24 
I25 
 
end