input/length_18_5
111010011000001000
